# set
set V := C1 C2 C3 C4 C5 C6 C7 C8 C9 C10 ;
set F := F11 F12 F13 F14 F11_1 F11_2 F11_3 F11_4 F12_1 F12_2 F12_3 F12_4 F13_1 F13_2 F13_3 F13_4 F14_1 F14_2 F14_3 F14_4 ;
set D0 := N0;
set Dσ := Nσ;

# param
param Cf := 200;		# ECV fixed cost
param C := 200;		# ECV max load
param Q := 60.63;		# ECV/BSV battery level
param r := 1;		# ECV consumption

param Cr := 100;		# recharging cost
param Ct := 10;		# travel cost
param Cs ;		# battery swap cost
param n := 10;		# number of customers
param g := 1.47;	# recharging rate

param m :=
N0 0
C1 27
C2 29
C3 25
C4 3
C5 9
C6 14
C7 9
C8 9
C9 19
C10 11
F11 0
F11_1 0
F11_2 0
F11_3 0
F11_4 0
F12 0
F12_1 0
F12_2 0
F12_3 0
F12_4 0
F13 0
F13_1 0
F13_2 0
F13_3 0
F13_4 0
F14 0
F14_1 0
F14_2 0
F14_3 0
F14_4 0
Nσ 0
;

param e :=
N0 0
C1 0
C2 68
C3 83
C4 162
C5 74
C6 179
C7 126
C8 83
C9 0
C10 0
F11 0
F11_1 0
F11_2 0
F11_3 0
F11_4 0
F12 0
F12_1 0
F12_2 0
F12_3 0
F12_4 0
F13 0
F13_1 0
F13_2 0
F13_3 0
F13_4 0
F14 0
F14_1 0
F14_2 0
F14_3 0
F14_4 0
Nσ 0
;

param l :=
N0 230
C1 202
C2 78
C3 93
C4 172
C5 84
C6 189
C7 136
C8 93
C9 205
C10 201
F11 230
F11_1 230
F11_2 230
F11_3 230
F11_4 230
F12 230
F12_1 230
F12_2 230
F12_3 230
F12_4 230
F13 230
F13_1 230
F13_2 230
F13_3 230
F13_4 230
F14 230
F14_1 230
F14_2 230
F14_3 230
F14_4 230
Nσ 230
;

param s :=
N0 0
C1 10
C2 10
C3 10
C4 10
C5 10
C6 10
C7 10
C8 10
C9 10
C10 10
F11 0
F11_1 0
F11_2 0
F11_3 0
F11_4 0
F12 0
F12_1 0
F12_2 0
F12_3 0
F12_4 0
F13 0
F13_1 0
F13_2 0
F13_3 0
F13_4 0
F14 0
F14_1 0
F14_2 0
F14_3 0
F14_4 0
Nσ 0
;

param d : N0 C1 C2 C3 C4 C5 C6 C7 C8 C9 C10 F11 F11_1 F11_2 F11_3 F11_4 F12 F12_1 F12_2 F12_3 F12_4 F13 F13_1 F13_2 F13_3 F13_4 F14 F14_1 F14_2 F14_3 F14_4 Nσ  :=
N0 0.0000 17.4642 36.0555 43.8634 18.0278 19.2354 19.6977 31.6228 17.4929 15.0000 18.0278 0.0000 0.0000 0.0000 0.0000 0.0000 27.8927 27.8927 27.8927 27.8927 27.8927 32.2490 32.2490 32.2490 32.2490 32.2490 36.2353 36.2353 36.2353 36.2353 36.2353 0.0000
C1 17.4642 0.0000 52.7731 59.2030 22.8035 5.0000 23.7697 19.1050 28.2312 25.4951 34.9285 17.4642 17.4642 17.4642 17.4642 17.4642 10.4403 10.4403 10.4403 10.4403 10.4403 49.2443 49.2443 49.2443 49.2443 49.2443 51.2250 51.2250 51.2250 51.2250 51.2250 17.4642
C2 36.0555 52.7731 0.0000 12.0000 47.8017 55.2268 38.0526 60.8276 40.8167 30.4138 18.0278 36.0555 36.0555 36.0555 36.0555 36.0555 63.0714 63.0714 63.0714 63.0714 63.0714 4.4721 4.4721 4.4721 4.4721 4.4721 10.6301 10.6301 10.6301 10.6301 10.6301 36.0555
C3 43.8634 59.2030 12.0000 0.0000 57.8014 62.3699 40.4969 63.9062 51.4782 34.4819 26.6271 43.8634 43.8634 43.8634 43.8634 43.8634 69.0652 69.0652 69.0652 69.0652 69.0652 16.1245 16.1245 16.1245 16.1245 16.1245 8.0623 8.0623 8.0623 8.0623 8.0623 43.8634
C4 18.0278 22.8035 47.8017 57.8014 0.0000 20.1246 37.1080 41.7732 8.5440 33.0151 31.3050 18.0278 18.0278 18.0278 18.0278 18.0278 30.0832 30.0832 30.0832 30.0832 30.0832 43.4166 43.4166 43.4166 43.4166 43.4166 50.9902 50.9902 50.9902 50.9902 50.9902 18.0278
C5 19.2354 5.0000 55.2268 62.3699 20.1246 0.0000 28.4605 23.0217 26.6833 29.4109 37.2156 19.2354 19.2354 19.2354 19.2354 19.2354 10.1980 10.1980 10.1980 10.1980 10.1980 51.4782 51.4782 51.4782 51.4782 51.4782 54.4885 54.4885 54.4885 54.4885 54.4885 19.2354
C6 19.6977 23.7697 38.0526 40.4969 37.1080 28.4605 0.0000 23.4094 37.1214 8.5440 24.3516 19.6977 19.6977 19.6977 19.6977 19.6977 31.4006 31.4006 31.4006 31.4006 31.4006 36.0555 36.0555 36.0555 36.0555 36.0555 32.5730 32.5730 32.5730 32.5730 32.5730 19.6977
C7 31.6228 19.1050 60.8276 63.9062 41.7732 23.0217 23.4094 0.0000 46.3249 30.4138 45.0000 31.6228 31.6228 31.6228 31.6228 31.6228 17.2627 17.2627 17.2627 17.2627 17.2627 58.3095 58.3095 58.3095 58.3095 58.3095 55.9732 55.9732 55.9732 55.9732 55.9732 31.6228
C8 17.4929 28.2312 40.8167 51.4782 8.5440 26.6833 37.1214 46.3249 0.0000 31.3209 25.7099 17.4929 17.4929 17.4929 17.4929 17.4929 36.8782 36.8782 36.8782 36.8782 36.8782 36.3593 36.3593 36.3593 36.3593 36.3593 45.2217 45.2217 45.2217 45.2217 45.2217 17.4929
C9 15.0000 25.4951 30.4138 34.4819 33.0151 29.4109 8.5440 30.4138 31.3209 0.0000 15.8114 15.0000 15.0000 15.0000 15.0000 15.0000 34.8281 34.8281 34.8281 34.8281 34.8281 28.0179 28.0179 28.0179 28.0179 28.0179 26.4197 26.4197 26.4197 26.4197 26.4197 15.0000
C10 18.0278 34.9285 18.0278 26.6271 31.3050 37.2156 24.3516 45.0000 25.7099 15.8114 0.0000 18.0278 18.0278 18.0278 18.0278 18.0278 45.3100 45.3100 45.3100 45.3100 45.3100 14.3178 14.3178 14.3178 14.3178 14.3178 19.6977 19.6977 19.6977 19.6977 19.6977 18.0278
F11 0.0000 17.4642 36.0555 43.8634 18.0278 19.2354 19.6977 31.6228 17.4929 15.0000 18.0278 0.0000 0.0000 0.0000 0.0000 0.0000 27.8927 27.8927 27.8927 27.8927 27.8927 32.2490 32.2490 32.2490 32.2490 32.2490 36.2353 36.2353 36.2353 36.2353 36.2353 0.0000
F11_1 0.0000 17.4642 36.0555 43.8634 18.0278 19.2354 19.6977 31.6228 17.4929 15.0000 18.0278 0.0000 0.0000 0.0000 0.0000 0.0000 27.8927 27.8927 27.8927 27.8927 27.8927 32.2490 32.2490 32.2490 32.2490 32.2490 36.2353 36.2353 36.2353 36.2353 36.2353 0.0000
F11_2 0.0000 17.4642 36.0555 43.8634 18.0278 19.2354 19.6977 31.6228 17.4929 15.0000 18.0278 0.0000 0.0000 0.0000 0.0000 0.0000 27.8927 27.8927 27.8927 27.8927 27.8927 32.2490 32.2490 32.2490 32.2490 32.2490 36.2353 36.2353 36.2353 36.2353 36.2353 0.0000
F11_3 0.0000 17.4642 36.0555 43.8634 18.0278 19.2354 19.6977 31.6228 17.4929 15.0000 18.0278 0.0000 0.0000 0.0000 0.0000 0.0000 27.8927 27.8927 27.8927 27.8927 27.8927 32.2490 32.2490 32.2490 32.2490 32.2490 36.2353 36.2353 36.2353 36.2353 36.2353 0.0000
F11_4 0.0000 17.4642 36.0555 43.8634 18.0278 19.2354 19.6977 31.6228 17.4929 15.0000 18.0278 0.0000 0.0000 0.0000 0.0000 0.0000 27.8927 27.8927 27.8927 27.8927 27.8927 32.2490 32.2490 32.2490 32.2490 32.2490 36.2353 36.2353 36.2353 36.2353 36.2353 0.0000
F12 27.8927 10.4403 63.0714 69.0652 30.0832 10.1980 31.4006 17.2627 36.8782 34.8281 45.3100 27.8927 27.8927 27.8927 27.8927 27.8927 0.0000 0.0000 0.0000 0.0000 0.0000 59.6154 59.6154 59.6154 59.6154 59.6154 61.0328 61.0328 61.0328 61.0328 61.0328 27.8927
F12_1 27.8927 10.4403 63.0714 69.0652 30.0832 10.1980 31.4006 17.2627 36.8782 34.8281 45.3100 27.8927 27.8927 27.8927 27.8927 27.8927 0.0000 0.0000 0.0000 0.0000 0.0000 59.6154 59.6154 59.6154 59.6154 59.6154 61.0328 61.0328 61.0328 61.0328 61.0328 27.8927
F12_2 27.8927 10.4403 63.0714 69.0652 30.0832 10.1980 31.4006 17.2627 36.8782 34.8281 45.3100 27.8927 27.8927 27.8927 27.8927 27.8927 0.0000 0.0000 0.0000 0.0000 0.0000 59.6154 59.6154 59.6154 59.6154 59.6154 61.0328 61.0328 61.0328 61.0328 61.0328 27.8927
F12_3 27.8927 10.4403 63.0714 69.0652 30.0832 10.1980 31.4006 17.2627 36.8782 34.8281 45.3100 27.8927 27.8927 27.8927 27.8927 27.8927 0.0000 0.0000 0.0000 0.0000 0.0000 59.6154 59.6154 59.6154 59.6154 59.6154 61.0328 61.0328 61.0328 61.0328 61.0328 27.8927
F12_4 27.8927 10.4403 63.0714 69.0652 30.0832 10.1980 31.4006 17.2627 36.8782 34.8281 45.3100 27.8927 27.8927 27.8927 27.8927 27.8927 0.0000 0.0000 0.0000 0.0000 0.0000 59.6154 59.6154 59.6154 59.6154 59.6154 61.0328 61.0328 61.0328 61.0328 61.0328 27.8927
F13 32.2490 49.2443 4.4721 16.1245 43.4166 51.4782 36.0555 58.3095 36.3593 28.0179 14.3178 32.2490 32.2490 32.2490 32.2490 32.2490 59.6154 59.6154 59.6154 59.6154 59.6154 0.0000 0.0000 0.0000 0.0000 0.0000 13.0000 13.0000 13.0000 13.0000 13.0000 32.2490
F13_1 32.2490 49.2443 4.4721 16.1245 43.4166 51.4782 36.0555 58.3095 36.3593 28.0179 14.3178 32.2490 32.2490 32.2490 32.2490 32.2490 59.6154 59.6154 59.6154 59.6154 59.6154 0.0000 0.0000 0.0000 0.0000 0.0000 13.0000 13.0000 13.0000 13.0000 13.0000 32.2490
F13_2 32.2490 49.2443 4.4721 16.1245 43.4166 51.4782 36.0555 58.3095 36.3593 28.0179 14.3178 32.2490 32.2490 32.2490 32.2490 32.2490 59.6154 59.6154 59.6154 59.6154 59.6154 0.0000 0.0000 0.0000 0.0000 0.0000 13.0000 13.0000 13.0000 13.0000 13.0000 32.2490
F13_3 32.2490 49.2443 4.4721 16.1245 43.4166 51.4782 36.0555 58.3095 36.3593 28.0179 14.3178 32.2490 32.2490 32.2490 32.2490 32.2490 59.6154 59.6154 59.6154 59.6154 59.6154 0.0000 0.0000 0.0000 0.0000 0.0000 13.0000 13.0000 13.0000 13.0000 13.0000 32.2490
F13_4 32.2490 49.2443 4.4721 16.1245 43.4166 51.4782 36.0555 58.3095 36.3593 28.0179 14.3178 32.2490 32.2490 32.2490 32.2490 32.2490 59.6154 59.6154 59.6154 59.6154 59.6154 0.0000 0.0000 0.0000 0.0000 0.0000 13.0000 13.0000 13.0000 13.0000 13.0000 32.2490
F14 36.2353 51.2250 10.6301 8.0623 50.9902 54.4885 32.5730 55.9732 45.2217 26.4197 19.6977 36.2353 36.2353 36.2353 36.2353 36.2353 61.0328 61.0328 61.0328 61.0328 61.0328 13.0000 13.0000 13.0000 13.0000 13.0000 0.0000 0.0000 0.0000 0.0000 0.0000 36.2353
F14_1 36.2353 51.2250 10.6301 8.0623 50.9902 54.4885 32.5730 55.9732 45.2217 26.4197 19.6977 36.2353 36.2353 36.2353 36.2353 36.2353 61.0328 61.0328 61.0328 61.0328 61.0328 13.0000 13.0000 13.0000 13.0000 13.0000 0.0000 0.0000 0.0000 0.0000 0.0000 36.2353
F14_2 36.2353 51.2250 10.6301 8.0623 50.9902 54.4885 32.5730 55.9732 45.2217 26.4197 19.6977 36.2353 36.2353 36.2353 36.2353 36.2353 61.0328 61.0328 61.0328 61.0328 61.0328 13.0000 13.0000 13.0000 13.0000 13.0000 0.0000 0.0000 0.0000 0.0000 0.0000 36.2353
F14_3 36.2353 51.2250 10.6301 8.0623 50.9902 54.4885 32.5730 55.9732 45.2217 26.4197 19.6977 36.2353 36.2353 36.2353 36.2353 36.2353 61.0328 61.0328 61.0328 61.0328 61.0328 13.0000 13.0000 13.0000 13.0000 13.0000 0.0000 0.0000 0.0000 0.0000 0.0000 36.2353
F14_4 36.2353 51.2250 10.6301 8.0623 50.9902 54.4885 32.5730 55.9732 45.2217 26.4197 19.6977 36.2353 36.2353 36.2353 36.2353 36.2353 61.0328 61.0328 61.0328 61.0328 61.0328 13.0000 13.0000 13.0000 13.0000 13.0000 0.0000 0.0000 0.0000 0.0000 0.0000 36.2353
Nσ 0.0000 17.4642 36.0555 43.8634 18.0278 19.2354 19.6977 31.6228 17.4929 15.0000 18.0278 0.0000 0.0000 0.0000 0.0000 0.0000 27.8927 27.8927 27.8927 27.8927 27.8927 32.2490 32.2490 32.2490 32.2490 32.2490 36.2353 36.2353 36.2353 36.2353 36.2353 0.0000
;

param t : N0 C1 C2 C3 C4 C5 C6 C7 C8 C9 C10 F11 F11_1 F11_2 F11_3 F11_4 F12 F12_1 F12_2 F12_3 F12_4 F13 F13_1 F13_2 F13_3 F13_4 F14 F14_1 F14_2 F14_3 F14_4 Nσ  :=
N0 0.0000 17.4642 36.0555 43.8634 18.0278 19.2354 19.6977 31.6228 17.4929 15.0000 18.0278 0.0000 0.0000 0.0000 0.0000 0.0000 27.8927 27.8927 27.8927 27.8927 27.8927 32.2490 32.2490 32.2490 32.2490 32.2490 36.2353 36.2353 36.2353 36.2353 36.2353 0.0000
C1 17.4642 0.0000 52.7731 59.2030 22.8035 5.0000 23.7697 19.1050 28.2312 25.4951 34.9285 17.4642 17.4642 17.4642 17.4642 17.4642 10.4403 10.4403 10.4403 10.4403 10.4403 49.2443 49.2443 49.2443 49.2443 49.2443 51.2250 51.2250 51.2250 51.2250 51.2250 17.4642
C2 36.0555 52.7731 0.0000 12.0000 47.8017 55.2268 38.0526 60.8276 40.8167 30.4138 18.0278 36.0555 36.0555 36.0555 36.0555 36.0555 63.0714 63.0714 63.0714 63.0714 63.0714 4.4721 4.4721 4.4721 4.4721 4.4721 10.6301 10.6301 10.6301 10.6301 10.6301 36.0555
C3 43.8634 59.2030 12.0000 0.0000 57.8014 62.3699 40.4969 63.9062 51.4782 34.4819 26.6271 43.8634 43.8634 43.8634 43.8634 43.8634 69.0652 69.0652 69.0652 69.0652 69.0652 16.1245 16.1245 16.1245 16.1245 16.1245 8.0623 8.0623 8.0623 8.0623 8.0623 43.8634
C4 18.0278 22.8035 47.8017 57.8014 0.0000 20.1246 37.1080 41.7732 8.5440 33.0151 31.3050 18.0278 18.0278 18.0278 18.0278 18.0278 30.0832 30.0832 30.0832 30.0832 30.0832 43.4166 43.4166 43.4166 43.4166 43.4166 50.9902 50.9902 50.9902 50.9902 50.9902 18.0278
C5 19.2354 5.0000 55.2268 62.3699 20.1246 0.0000 28.4605 23.0217 26.6833 29.4109 37.2156 19.2354 19.2354 19.2354 19.2354 19.2354 10.1980 10.1980 10.1980 10.1980 10.1980 51.4782 51.4782 51.4782 51.4782 51.4782 54.4885 54.4885 54.4885 54.4885 54.4885 19.2354
C6 19.6977 23.7697 38.0526 40.4969 37.1080 28.4605 0.0000 23.4094 37.1214 8.5440 24.3516 19.6977 19.6977 19.6977 19.6977 19.6977 31.4006 31.4006 31.4006 31.4006 31.4006 36.0555 36.0555 36.0555 36.0555 36.0555 32.5730 32.5730 32.5730 32.5730 32.5730 19.6977
C7 31.6228 19.1050 60.8276 63.9062 41.7732 23.0217 23.4094 0.0000 46.3249 30.4138 45.0000 31.6228 31.6228 31.6228 31.6228 31.6228 17.2627 17.2627 17.2627 17.2627 17.2627 58.3095 58.3095 58.3095 58.3095 58.3095 55.9732 55.9732 55.9732 55.9732 55.9732 31.6228
C8 17.4929 28.2312 40.8167 51.4782 8.5440 26.6833 37.1214 46.3249 0.0000 31.3209 25.7099 17.4929 17.4929 17.4929 17.4929 17.4929 36.8782 36.8782 36.8782 36.8782 36.8782 36.3593 36.3593 36.3593 36.3593 36.3593 45.2217 45.2217 45.2217 45.2217 45.2217 17.4929
C9 15.0000 25.4951 30.4138 34.4819 33.0151 29.4109 8.5440 30.4138 31.3209 0.0000 15.8114 15.0000 15.0000 15.0000 15.0000 15.0000 34.8281 34.8281 34.8281 34.8281 34.8281 28.0179 28.0179 28.0179 28.0179 28.0179 26.4197 26.4197 26.4197 26.4197 26.4197 15.0000
C10 18.0278 34.9285 18.0278 26.6271 31.3050 37.2156 24.3516 45.0000 25.7099 15.8114 0.0000 18.0278 18.0278 18.0278 18.0278 18.0278 45.3100 45.3100 45.3100 45.3100 45.3100 14.3178 14.3178 14.3178 14.3178 14.3178 19.6977 19.6977 19.6977 19.6977 19.6977 18.0278
F11 0.0000 17.4642 36.0555 43.8634 18.0278 19.2354 19.6977 31.6228 17.4929 15.0000 18.0278 0.0000 0.0000 0.0000 0.0000 0.0000 27.8927 27.8927 27.8927 27.8927 27.8927 32.2490 32.2490 32.2490 32.2490 32.2490 36.2353 36.2353 36.2353 36.2353 36.2353 0.0000
F11_1 0.0000 17.4642 36.0555 43.8634 18.0278 19.2354 19.6977 31.6228 17.4929 15.0000 18.0278 0.0000 0.0000 0.0000 0.0000 0.0000 27.8927 27.8927 27.8927 27.8927 27.8927 32.2490 32.2490 32.2490 32.2490 32.2490 36.2353 36.2353 36.2353 36.2353 36.2353 0.0000
F11_2 0.0000 17.4642 36.0555 43.8634 18.0278 19.2354 19.6977 31.6228 17.4929 15.0000 18.0278 0.0000 0.0000 0.0000 0.0000 0.0000 27.8927 27.8927 27.8927 27.8927 27.8927 32.2490 32.2490 32.2490 32.2490 32.2490 36.2353 36.2353 36.2353 36.2353 36.2353 0.0000
F11_3 0.0000 17.4642 36.0555 43.8634 18.0278 19.2354 19.6977 31.6228 17.4929 15.0000 18.0278 0.0000 0.0000 0.0000 0.0000 0.0000 27.8927 27.8927 27.8927 27.8927 27.8927 32.2490 32.2490 32.2490 32.2490 32.2490 36.2353 36.2353 36.2353 36.2353 36.2353 0.0000
F11_4 0.0000 17.4642 36.0555 43.8634 18.0278 19.2354 19.6977 31.6228 17.4929 15.0000 18.0278 0.0000 0.0000 0.0000 0.0000 0.0000 27.8927 27.8927 27.8927 27.8927 27.8927 32.2490 32.2490 32.2490 32.2490 32.2490 36.2353 36.2353 36.2353 36.2353 36.2353 0.0000
F12 27.8927 10.4403 63.0714 69.0652 30.0832 10.1980 31.4006 17.2627 36.8782 34.8281 45.3100 27.8927 27.8927 27.8927 27.8927 27.8927 0.0000 0.0000 0.0000 0.0000 0.0000 59.6154 59.6154 59.6154 59.6154 59.6154 61.0328 61.0328 61.0328 61.0328 61.0328 27.8927
F12_1 27.8927 10.4403 63.0714 69.0652 30.0832 10.1980 31.4006 17.2627 36.8782 34.8281 45.3100 27.8927 27.8927 27.8927 27.8927 27.8927 0.0000 0.0000 0.0000 0.0000 0.0000 59.6154 59.6154 59.6154 59.6154 59.6154 61.0328 61.0328 61.0328 61.0328 61.0328 27.8927
F12_2 27.8927 10.4403 63.0714 69.0652 30.0832 10.1980 31.4006 17.2627 36.8782 34.8281 45.3100 27.8927 27.8927 27.8927 27.8927 27.8927 0.0000 0.0000 0.0000 0.0000 0.0000 59.6154 59.6154 59.6154 59.6154 59.6154 61.0328 61.0328 61.0328 61.0328 61.0328 27.8927
F12_3 27.8927 10.4403 63.0714 69.0652 30.0832 10.1980 31.4006 17.2627 36.8782 34.8281 45.3100 27.8927 27.8927 27.8927 27.8927 27.8927 0.0000 0.0000 0.0000 0.0000 0.0000 59.6154 59.6154 59.6154 59.6154 59.6154 61.0328 61.0328 61.0328 61.0328 61.0328 27.8927
F12_4 27.8927 10.4403 63.0714 69.0652 30.0832 10.1980 31.4006 17.2627 36.8782 34.8281 45.3100 27.8927 27.8927 27.8927 27.8927 27.8927 0.0000 0.0000 0.0000 0.0000 0.0000 59.6154 59.6154 59.6154 59.6154 59.6154 61.0328 61.0328 61.0328 61.0328 61.0328 27.8927
F13 32.2490 49.2443 4.4721 16.1245 43.4166 51.4782 36.0555 58.3095 36.3593 28.0179 14.3178 32.2490 32.2490 32.2490 32.2490 32.2490 59.6154 59.6154 59.6154 59.6154 59.6154 0.0000 0.0000 0.0000 0.0000 0.0000 13.0000 13.0000 13.0000 13.0000 13.0000 32.2490
F13_1 32.2490 49.2443 4.4721 16.1245 43.4166 51.4782 36.0555 58.3095 36.3593 28.0179 14.3178 32.2490 32.2490 32.2490 32.2490 32.2490 59.6154 59.6154 59.6154 59.6154 59.6154 0.0000 0.0000 0.0000 0.0000 0.0000 13.0000 13.0000 13.0000 13.0000 13.0000 32.2490
F13_2 32.2490 49.2443 4.4721 16.1245 43.4166 51.4782 36.0555 58.3095 36.3593 28.0179 14.3178 32.2490 32.2490 32.2490 32.2490 32.2490 59.6154 59.6154 59.6154 59.6154 59.6154 0.0000 0.0000 0.0000 0.0000 0.0000 13.0000 13.0000 13.0000 13.0000 13.0000 32.2490
F13_3 32.2490 49.2443 4.4721 16.1245 43.4166 51.4782 36.0555 58.3095 36.3593 28.0179 14.3178 32.2490 32.2490 32.2490 32.2490 32.2490 59.6154 59.6154 59.6154 59.6154 59.6154 0.0000 0.0000 0.0000 0.0000 0.0000 13.0000 13.0000 13.0000 13.0000 13.0000 32.2490
F13_4 32.2490 49.2443 4.4721 16.1245 43.4166 51.4782 36.0555 58.3095 36.3593 28.0179 14.3178 32.2490 32.2490 32.2490 32.2490 32.2490 59.6154 59.6154 59.6154 59.6154 59.6154 0.0000 0.0000 0.0000 0.0000 0.0000 13.0000 13.0000 13.0000 13.0000 13.0000 32.2490
F14 36.2353 51.2250 10.6301 8.0623 50.9902 54.4885 32.5730 55.9732 45.2217 26.4197 19.6977 36.2353 36.2353 36.2353 36.2353 36.2353 61.0328 61.0328 61.0328 61.0328 61.0328 13.0000 13.0000 13.0000 13.0000 13.0000 0.0000 0.0000 0.0000 0.0000 0.0000 36.2353
F14_1 36.2353 51.2250 10.6301 8.0623 50.9902 54.4885 32.5730 55.9732 45.2217 26.4197 19.6977 36.2353 36.2353 36.2353 36.2353 36.2353 61.0328 61.0328 61.0328 61.0328 61.0328 13.0000 13.0000 13.0000 13.0000 13.0000 0.0000 0.0000 0.0000 0.0000 0.0000 36.2353
F14_2 36.2353 51.2250 10.6301 8.0623 50.9902 54.4885 32.5730 55.9732 45.2217 26.4197 19.6977 36.2353 36.2353 36.2353 36.2353 36.2353 61.0328 61.0328 61.0328 61.0328 61.0328 13.0000 13.0000 13.0000 13.0000 13.0000 0.0000 0.0000 0.0000 0.0000 0.0000 36.2353
F14_3 36.2353 51.2250 10.6301 8.0623 50.9902 54.4885 32.5730 55.9732 45.2217 26.4197 19.6977 36.2353 36.2353 36.2353 36.2353 36.2353 61.0328 61.0328 61.0328 61.0328 61.0328 13.0000 13.0000 13.0000 13.0000 13.0000 0.0000 0.0000 0.0000 0.0000 0.0000 36.2353
F14_4 36.2353 51.2250 10.6301 8.0623 50.9902 54.4885 32.5730 55.9732 45.2217 26.4197 19.6977 36.2353 36.2353 36.2353 36.2353 36.2353 61.0328 61.0328 61.0328 61.0328 61.0328 13.0000 13.0000 13.0000 13.0000 13.0000 0.0000 0.0000 0.0000 0.0000 0.0000 36.2353
Nσ 0.0000 17.4642 36.0555 43.8634 18.0278 19.2354 19.6977 31.6228 17.4929 15.0000 18.0278 0.0000 0.0000 0.0000 0.0000 0.0000 27.8927 27.8927 27.8927 27.8927 27.8927 32.2490 32.2490 32.2490 32.2490 32.2490 36.2353 36.2353 36.2353 36.2353 36.2353 0.0000
;
